Code/Rooms/2nwalls20-9.dzn
n = 20;

R =
[|0,0,0,0,0,0,0,0,0,0,0,1,0,3,0,0,0,0,0,0,
 |0,5,0,9,0,0,4,4,4,4,0,0,0,3,0,0,0,0,0,4,
 |0,5,0,9,0,0,0,0,0,0,0,0,0,3,0,5,0,0,0,4,
 |0,5,0,9,0,0,3,3,3,0,0,0,0,0,0,5,0,7,0,4,
 |0,5,0,9,0,0,4,4,4,4,0,0,0,0,0,5,0,7,7,4,
 |0,5,0,9,0,0,0,0,1,0,0,0,0,0,0,5,0,7,7,0,
 |5,1,0,9,1,0,5,5,5,5,5,0,3,0,0,5,5,7,7,0,
 |5,0,7,9,6,5,1,0,0,0,0,0,3,0,0,0,5,7,7,0,
 |5,0,7,9,6,5,0,5,0,0,0,0,3,0,0,0,5,7,7,0,
 |5,0,7,9,6,5,0,5,0,0,0,0,0,7,7,0,5,7,7,0,
 |5,0,7,0,6,5,0,5,0,0,0,7,0,7,7,0,5,0,7,0,
 |0,0,7,0,6,5,0,5,0,0,0,7,0,7,7,0,0,0,0,0,
 |0,0,7,0,6,0,0,5,0,0,0,7,0,7,7,0,0,0,0,0,
 |0,0,7,0,0,1,0,0,0,0,0,7,0,7,7,0,0,0,0,0,
 |10,10,10,10,10,10,10,10,10,10,0,7,0,7,7,0,5,0,0,0,
 |0,1,2,2,2,2,0,0,0,0,0,7,0,7,7,1,5,0,0,0,
 |0,10,10,10,10,10,10,10,10,10,10,7,0,0,0,0,5,0,0,0,
 |0,0,0,0,0,0,5,5,5,5,5,0,3,3,3,0,5,0,0,0,
 |0,6,6,6,6,6,6,4,4,4,4,0,0,0,0,0,5,0,0,0,
 |0,1,0,0,0,0,0,0,0,0,0,0,0,0,0,1,0,0,0,0,
 |];

