Code/Walks/2nwalls20-9.txt
1 1 1 1 1 1 1 1 1 1 1 W . W . . . . . . 
. W . W . . W W W W 1 . . W . . . . . W 
. W . W . . . . . . 1 . . W . W . . . W 
. W . W . . W W W . 1 . . . . W . W . W 
. W . W . . W W W W 1 . . . . W . W W W 
. W . W . . . . W . 1 1 1 1 1 W . W W . 
W W . W W . W W W W W . W . 1 W W W W . 
W . W W W W W . . . . . W . 1 . W W W . 
W . W W W W . W . . . . W . 1 1 W W W . 
W . W W W W . W . . . . . W W 1 W W W . 
W . W . W W . W . . . W . W W 1 W . W . 
. . W . W W . W . . . W . W W 1 1 1 1 1 
. . W . W . . W . . . W . W W . . . . 1 
. . W . . W . . . . . W . W W . . . . 1 
W W W W W W W W W W . W . W W . W . . 1 
. W W W W W . . . . . W . W W W W . . 1 
. W W W W W W W W W W W . . . . W . . 1 
. . . . . . W W W W W . W W W . W . . 1 
. W W W W W W W W W W . . . . . W . . 1 
. W . . . . . . . . . . . . . W . . . 1 
Length: 39, turns: 7
% time elapsed: 1.09 s
----------
==========
% time elapsed: 1.09 s
